instances/p2/p2_6_8-3.dzn
Alphabet = {A,C,G,T};
ns = 6;
nc = 6;
neighbours = [| I(C),I(T),I(A),I(T),Null,Null | I(T),I(A),I(A),I(A),Null,Null | I(T),I(C),I(T),I(A),I(C),I(T) | I(C),I(G),I(C),Null,Null,Null | I(C),I(T),I(C),I(G),I(T),I(G) | I(C),Null,Null,Null,Null,Null |];
