instances/p2/p2_6_8-3.txt
{
	"num_strings": 6,
	"alphabet": "ACGT",
	"strings": [
		"CTAT",
		"TAAA",
		"TCTACT",
		"CGC",
		"CTCGTG",
		"C"
	],
	"str_length":[4,4,6,3,6,1]
}